
m = 12;

n = 12;

Amin = 57;

Amax = 72;

B = 2736;

lambda = 20.00;

c = 
[[7,9,6,6,8,10,10,2,10,4,4,6],
[6,6,8,3,7,4,10,8,8,7,5,2],
[8,2,10,3,3,7,7,7,4,9,2,10],
[8,10,9,7,2,2,9,6,7,6,7,10],
[6,4,7,4,8,8,2,5,9,10,4,8],
[5,9,4,7,7,3,4,4,9,2,7,9],
[10,5,5,4,7,8,3,3,2,6,3,8],
[4,10,9,9,10,2,6,2,10,7,7,4],
[8,7,7,6,6,10,3,5,3,6,5,6],
[10,6,5,8,10,4,3,3,4,10,8,3],
[9,4,3,8,7,6,8,4,9,2,6,4],
[2,7,5,3,9,8,5,7,10,9,4,10]];
